     Program PHONON v.6.3MaX starts on  5Jul2020 at  8: 9:54

     R & G space division:  proc/nbgrp/npool/nimage =       4

     Reading data from directory:
     calc/ZnS-RS.save/

     IMPORTANT: XC functional enforced from input :
     Exchange-correlation      = PBE ( 1  4  3  4 0 0)
     Any further DFT definition will be discarded
     Please, verify this is what you really want

     Check: negative/imaginary core charge=   -0.000002    0.000000

     Calculation of q =    0.0000000   0.0000000   0.0000000

     phonons of ZnS-RS at Gamma point

     bravais-lattice index     =            2
     lattice parameter (alat)  =       9.1456  a.u.
     unit-cell volume          =     191.2420 (a.u.)^3
     number of atoms/cell      =            2
     number of atomic types    =            2
     kinetic-energy cut-off    =      30.0000  Ry
     charge density cut-off    =     120.0000  Ry
     convergence threshold     =      5.0E-16
     beta                      =       0.7000
     number of iterations used =            4
     Exchange-correlation      = PBE ( 1  4  3  4 0 0)

     celldm(1)=    9.14565  celldm(2)=    0.00000  celldm(3)=    0.00000
     celldm(4)=    0.00000  celldm(5)=    0.00000  celldm(6)=    0.00000

     crystal axes: (cart. coord. in units of alat)
               a(1) = ( -0.5000  0.0000  0.5000 )
               a(2) = (  0.0000  0.5000  0.5000 )
               a(3) = ( -0.5000  0.5000  0.0000 )

     reciprocal axes: (cart. coord. in units 2 pi/alat)
               b(1) = ( -1.0000 -1.0000  1.0000 )
               b(2) = (  1.0000  1.0000  1.0000 )
               b(3) = ( -1.0000  1.0000 -1.0000 )

     Atoms inside the unit cell:

     Cartesian axes

     site n.  atom      mass           positions (alat units)
        1     Zn  65.3800   tau(    1) = (    0.00000    0.00000    0.00000  )
        2     S   32.0650   tau(    2) = (   -0.50000    0.50000    0.50000  )

     Computing dynamical matrix for
                    q = (   0.0000000   0.0000000   0.0000000 )

     49 Sym.Ops. (with q -> -q+G )

     G cutoff =  254.2438  (   1071 G-vectors)     FFT grid: ( 24, 24, 24)
     number of k points=    10
                       cart. coord. in units 2pi/alat
        k(    1) = (   0.0000000   0.0000000   0.0000000), wk =   0.0160000
        k(    2) = (  -0.2000000   0.2000000  -0.2000000), wk =   0.1280000
        k(    3) = (  -0.4000000   0.4000000  -0.4000000), wk =   0.1280000
        k(    4) = (   0.0000000   0.4000000   0.0000000), wk =   0.0960000
        k(    5) = (  -0.2000000   0.6000000  -0.2000000), wk =   0.3840000
        k(    6) = (   0.6000000  -0.2000000   0.6000000), wk =   0.3840000
        k(    7) = (   0.4000000   0.0000000   0.4000000), wk =   0.1920000
        k(    8) = (   0.0000000   0.8000000   0.0000000), wk =   0.0960000
        k(    9) = (   0.8000000   0.0000000   0.8000000), wk =   0.1920000
        k(   10) = (   0.6000000  -0.2000000   1.0000000), wk =   0.3840000

     PseudoPot. # 1 for Zn read from file:
     ~/Documents/quantum_simulations/PP_eff/Zn_pbe_v1.uspp.F.UPF
     MD5 check sum: Not computed, couldn't open file
     Pseudo is Ultrasoft, Zval = 20.0
     Generated by new atomic code, or converted to UPF format
     Using radial grid of  943 points,  6 beta functions with:
                l(1) =   0
                l(2) =   0
                l(3) =   1
                l(4) =   1
                l(5) =   2
                l(6) =   2
     Q(r) pseudized with  8 coefficients,  rinner =    1.100   1.100   1.100
                                                       1.100   1.100

     PseudoPot. # 2 for S  read from file:
     ~/Documents/quantum_simulations/PP_eff/s_pbe_v1.4.uspp.F.UPF
     MD5 check sum: Not computed, couldn't open file
     Pseudo is Ultrasoft + core correction, Zval =  6.0
     Generated by new atomic code, or converted to UPF format
     Using radial grid of  907 points,  6 beta functions with:
                l(1) =   0
                l(2) =   0
                l(3) =   1
                l(4) =   1
                l(5) =   2
                l(6) =   2
     Q(r) pseudized with  8 coefficients,  rinner =    1.300   1.300   1.300
                                                       1.300   1.300

     Mode symmetry, O_h (m-3m)  point group:

     Electric field:
     Dielectric constant
     Born effective charges as d Force / d E

     Atomic displacements:
     There are   2 irreducible representations

     Representation     1      3 modes -T_1u G_15  G_4-  To be done

     Representation     2      3 modes -T_1u G_15  G_4-  To be done

     Alpha used in Ewald sum =   1.1000

     Electric Fields Calculation

      thresh= 1.000E-02 alpha_mix =  0.700 |ddv_scf|^2 =  5.577E-07

[...]

     End of electric fields calculation

          Dielectric constant in cartesian axis

          (      12.681696803       0.000000000       0.000000000 )
          (       0.000000000      12.681696803      -0.000000000 )
          (       0.000000000      -0.000000000      12.681696803 )

          Effective charges (d Force / dE) in cartesian axis

           atom      1   Zn
      Ex  (        3.59074        0.00000        0.00000 )
      Ey  (        0.00000        3.59074        0.00000 )
      Ez  (        0.00000        0.00000        3.59074 )
           atom      2   S
      Ex  (       -3.60224        0.00000        0.00000 )
      Ey  (        0.00000       -3.60224       -0.00000 )
      Ez  (        0.00000       -0.00000       -3.60224 )

     Representation #  1 modes #   1  2  3

     Self-consistent Calculation

[...]

     End of self-consistent calculation

     Convergence has been achieved

     Representation #  2 modes #   4  5  6

     Self-consistent Calculation

[...]

      thresh= 3.784E-09 alpha_mix =  0.700 |ddv_scf|^2 =  7.235E-18

     End of self-consistent calculation

     Convergence has been achieved

     Number of q in the star =    1
     List of q in the star:
          1   0.000000000   0.000000000   0.000000000

          Dielectric constant in cartesian axis

          (      12.681696803       0.000000000       0.000000000 )
          (       0.000000000      12.681696803      -0.000000000 )
          (       0.000000000      -0.000000000      12.681696803 )

          Effective charges (d Force / dE) in cartesian axis

           atom      1   Zn
      Ex  (        3.59074        0.00000        0.00000 )
      Ey  (        0.00000        3.59074        0.00000 )
      Ez  (        0.00000        0.00000        3.59074 )
           atom      2   S
      Ex  (       -3.60224        0.00000        0.00000 )
      Ey  (        0.00000       -3.60224       -0.00000 )
      Ez  (        0.00000       -0.00000       -3.60224 )

     Diagonalizing the dynamical matrix

     q = (    0.000000000   0.000000000   0.000000000 )

     freq (    1) =      -0.816806 [THz] =     -27.245720 [cm-1]
     freq (    2) =      -0.816806 [THz] =     -27.245720 [cm-1]
     freq (    3) =      -0.816806 [THz] =     -27.245720 [cm-1]
     freq (    4) =       5.769731 [THz] =     192.457520 [cm-1]
     freq (    5) =       5.769731 [THz] =     192.457520 [cm-1]
     freq (    6) =       5.769731 [THz] =     192.457520 [cm-1]

     Mode symmetry, O_h (m-3m)  point group:

     freq (  1 -  3) =        -27.2  [cm-1]   --> T_1u G_15  G_4- I
     freq (  4 -  6) =        192.5  [cm-1]   --> T_1u G_15  G_4- I

     INITIALIZATION:

     DIELECTRIC CONSTANT AND EFFECTIVE CHARGES:

     DYNAMICAL MATRIX:

      General routines

   This run was terminated on:   8:10: 9   5Jul2020

   JOB DONE.